Maximize
  27 x0_0_ + 27 x0_1_ + 27 x0_2_ + 27 x0_3_ + 27 x0_4_ + 27 x0_5_ + 21 x0_6_
   + 6 x0_7_ + 6 x0_8_ + 6 x0_9_ + 216 x1_7_ + 216 x1_8_ + 216 x1_9_
   + 102 x2_7_ + 102 x2_8_ + 102 x2_9_ + 216 x3_7_ + 216 x3_8_ + 216 x3_9_
   + 288 x4_7_ + 288 x4_8_ + 288 x4_9_ + 27 x5_0_ + 27 x5_1_ + 27 x5_2_
   + 27 x5_3_ + 27 x5_4_ + 27 x5_5_ + 21 x5_6_ + 6 x5_7_ + 6 x5_8_
   + 6 x5_9_ + 51 x6_7_ + 51 x6_8_ + 51 x6_9_ + 54 x7_0_ + 54 x7_1_
   + 54 x7_2_ + 54 x7_3_ + 54 x7_4_ + 54 x7_5_ + 42 x7_6_ + 12 x7_7_
   + 12 x7_8_ + 12 x7_9_ + 360 x8_7_ + 360 x8_8_ + 360 x8_9_ + 27 x9_0_
   + 27 x9_1_ + 27 x9_2_ + 27 x9_3_ + 27 x9_4_ + 27 x9_5_ + 21 x9_6_
   + 6 x9_7_ + 6 x9_8_ + 6 x9_9_ + 45 x10_0_ + 45 x10_1_ + 45 x10_2_
   + 45 x10_3_ + 45 x10_4_ + 45 x10_5_ + 35 x10_6_ + 10 x10_7_ + 10 x10_8_
   + 10 x10_9_ + 51 x11_7_ + 51 x11_8_ + 51 x11_9_ + 144 x12_7_
   + 144 x12_8_ + 144 x12_9_ + 54 x13_0_ + 54 x13_1_ + 54 x13_2_
   + 54 x13_3_ + 54 x13_4_ + 54 x13_5_ + 42 x13_6_ + 12 x13_7_ + 12 x13_8_
   + 12 x13_9_ + 18 x14_0_ + 18 x14_1_ + 18 x14_2_ + 18 x14_3_ + 18 x14_4_
   + 18 x14_5_ + 14 x14_6_ + 4 x14_7_ + 4 x14_8_ + 4 x14_9_ + 288 x15_7_
   + 288 x15_8_ + 288 x15_9_ + 216 x16_7_ + 216 x16_8_ + 216 x16_9_
   + 45 x17_0_ + 45 x17_1_ + 45 x17_2_ + 45 x17_3_ + 45 x17_4_ + 45 x17_5_
   + 35 x17_6_ + 10 x17_7_ + 10 x17_8_ + 10 x17_9_ + 216 x18_7_
   + 216 x18_8_ + 216 x18_9_ + 360 x19_7_ + 360 x19_8_ + 360 x19_9_
   + 144 x20_7_ + 144 x20_8_ + 144 x20_9_ + 144 x21_7_ + 144 x21_8_
   + 144 x21_9_ + 27 x22_0_ + 27 x22_1_ + 27 x22_2_ + 27 x22_3_ + 27 x22_4_
   + 27 x22_5_ + 21 x22_6_ + 6 x22_7_ + 6 x22_8_ + 6 x22_9_ + 360 x23_7_
   + 360 x23_8_ + 360 x23_9_ + 9 x24_0_ + 9 x24_1_ + 9 x24_2_ + 9 x24_3_
   + 9 x24_4_ + 9 x24_5_ + 7 x24_6_ + 2 x24_7_ + 2 x24_8_ + 2 x24_9_
Subject To
 R0: x0_0_ + x0_1_ + x0_2_ + x0_3_ + x0_4_ + x0_5_ + x0_6_ + x0_7_ + x0_8_
   + x0_9_ + x0_n_ = 1
 R1: x1_6_ + x1_7_ + x1_8_ + x1_9_ + x1_n_ = 1
 R2: x2_7_ + x2_8_ + x2_9_ + x2_n_ = 1
 R3: x3_6_ + x3_7_ + x3_8_ + x3_9_ + x3_n_ = 1
 R4: x4_6_ + x4_7_ + x4_8_ + x4_9_ + x4_n_ = 1
 R5: x5_0_ + x5_1_ + x5_2_ + x5_3_ + x5_4_ + x5_5_ + x5_6_ + x5_7_ + x5_8_
   + x5_9_ + x5_n_ = 1
 R6: x6_7_ + x6_8_ + x6_9_ + x6_n_ = 1
 R7: x7_0_ + x7_1_ + x7_2_ + x7_3_ + x7_4_ + x7_5_ + x7_6_ + x7_7_ + x7_8_
   + x7_9_ + x7_n_ = 1
 R8: x8_6_ + x8_7_ + x8_8_ + x8_9_ + x8_n_ = 1
 R9: x9_0_ + x9_1_ + x9_2_ + x9_3_ + x9_4_ + x9_5_ + x9_6_ + x9_7_ + x9_8_
   + x9_9_ + x9_n_ = 1
 R10: x10_0_ + x10_1_ + x10_2_ + x10_3_ + x10_4_ + x10_5_ + x10_6_ + x10_7_
   + x10_8_ + x10_9_ + x10_n_ = 1
 R11: x11_7_ + x11_8_ + x11_9_ + x11_n_ = 1
 R12: x12_6_ + x12_7_ + x12_8_ + x12_9_ + x12_n_ = 1
 R13: x13_0_ + x13_1_ + x13_2_ + x13_3_ + x13_4_ + x13_5_ + x13_6_ + x13_7_
   + x13_8_ + x13_9_ + x13_n_ = 1
 R14: x14_0_ + x14_1_ + x14_2_ + x14_3_ + x14_4_ + x14_5_ + x14_6_ + x14_7_
   + x14_8_ + x14_9_ + x14_n_ = 1
 R15: x15_6_ + x15_7_ + x15_8_ + x15_9_ + x15_n_ = 1
 R16: x16_6_ + x16_7_ + x16_8_ + x16_9_ + x16_n_ = 1
 R17: x17_0_ + x17_1_ + x17_2_ + x17_3_ + x17_4_ + x17_5_ + x17_6_ + x17_7_
   + x17_8_ + x17_9_ + x17_n_ = 1
 R18: x18_6_ + x18_7_ + x18_8_ + x18_9_ + x18_n_ = 1
 R19: x19_6_ + x19_7_ + x19_8_ + x19_9_ + x19_n_ = 1
 R20: x20_6_ + x20_7_ + x20_8_ + x20_9_ + x20_n_ = 1
 R21: x21_6_ + x21_7_ + x21_8_ + x21_9_ + x21_n_ = 1
 R22: x22_0_ + x22_1_ + x22_2_ + x22_3_ + x22_4_ + x22_5_ + x22_6_ + x22_7_
   + x22_8_ + x22_9_ + x22_n_ = 1
 R23: x23_6_ + x23_7_ + x23_8_ + x23_9_ + x23_n_ = 1
 R24: x24_0_ + x24_1_ + x24_2_ + x24_3_ + x24_4_ + x24_5_ + x24_6_ + x24_7_
   + x24_8_ + x24_9_ + x24_n_ = 1
 R25: x0_0_ + x7_0_ <= 1
 R26: x0_1_ + x7_1_ <= 1
 R27: x0_2_ + x7_2_ <= 1
 R28: x0_3_ + x7_3_ <= 1
 R29: x0_4_ + x7_4_ <= 1
 R30: x0_5_ + x7_5_ <= 1
 R31: x0_6_ + x7_6_ <= 1
 R32: x0_7_ + x7_7_ <= 1
 R33: x0_8_ + x7_8_ <= 1
 R34: x0_9_ + x7_9_ <= 1
 R35: x0_0_ + x10_0_ <= 1
 R36: x0_1_ + x10_1_ <= 1
 R37: x0_2_ + x10_2_ <= 1
 R38: x0_3_ + x10_3_ <= 1
 R39: x0_4_ + x10_4_ <= 1
 R40: x0_5_ + x10_5_ <= 1
 R41: x0_6_ + x10_6_ <= 1
 R42: x0_7_ + x10_7_ <= 1
 R43: x0_8_ + x10_8_ <= 1
 R44: x0_9_ + x10_9_ <= 1
 R45: x0_0_ + x13_0_ <= 1
 R46: x0_1_ + x13_1_ <= 1
 R47: x0_2_ + x13_2_ <= 1
 R48: x0_3_ + x13_3_ <= 1
 R49: x0_4_ + x13_4_ <= 1
 R50: x0_5_ + x13_5_ <= 1
 R51: x0_6_ + x13_6_ <= 1
 R52: x0_7_ + x13_7_ <= 1
 R53: x0_8_ + x13_8_ <= 1
 R54: x0_9_ + x13_9_ <= 1
 R55: x0_0_ + x17_0_ <= 1
 R56: x0_1_ + x17_1_ <= 1
 R57: x0_2_ + x17_2_ <= 1
 R58: x0_3_ + x17_3_ <= 1
 R59: x0_4_ + x17_4_ <= 1
 R60: x0_5_ + x17_5_ <= 1
 R61: x0_6_ + x17_6_ <= 1
 R62: x0_7_ + x17_7_ <= 1
 R63: x0_8_ + x17_8_ <= 1
 R64: x0_9_ + x17_9_ <= 1
 R65: x0_0_ + x22_0_ <= 1
 R66: x0_1_ + x22_1_ <= 1
 R67: x0_2_ + x22_2_ <= 1
 R68: x0_3_ + x22_3_ <= 1
 R69: x0_4_ + x22_4_ <= 1
 R70: x0_5_ + x22_5_ <= 1
 R71: x0_6_ + x22_6_ <= 1
 R72: x0_7_ + x22_7_ <= 1
 R73: x0_8_ + x22_8_ <= 1
 R74: x0_9_ + x22_9_ <= 1
 R75: x1_6_ + x4_6_ <= 1
 R76: x1_7_ + x4_7_ <= 1
 R77: x1_8_ + x4_8_ <= 1
 R78: x1_9_ + x4_9_ <= 1
 R79: x1_6_ + x5_6_ <= 1
 R80: x1_7_ + x5_7_ <= 1
 R81: x1_8_ + x5_8_ <= 1
 R82: x1_9_ + x5_9_ <= 1
 R83: x1_6_ + x8_6_ <= 1
 R84: x1_7_ + x8_7_ <= 1
 R85: x1_8_ + x8_8_ <= 1
 R86: x1_9_ + x8_9_ <= 1
 R87: x1_6_ + x9_6_ <= 1
 R88: x1_7_ + x9_7_ <= 1
 R89: x1_8_ + x9_8_ <= 1
 R90: x1_9_ + x9_9_ <= 1
 R91: x1_6_ + x14_6_ <= 1
 R92: x1_7_ + x14_7_ <= 1
 R93: x1_8_ + x14_8_ <= 1
 R94: x1_9_ + x14_9_ <= 1
 R95: x1_6_ + x15_6_ <= 1
 R96: x1_7_ + x15_7_ <= 1
 R97: x1_8_ + x15_8_ <= 1
 R98: x1_9_ + x15_9_ <= 1
 R99: x1_6_ + x20_6_ <= 1
 R100: x1_7_ + x20_7_ <= 1
 R101: x1_8_ + x20_8_ <= 1
 R102: x1_9_ + x20_9_ <= 1
 R103: x1_6_ + x24_6_ <= 1
 R104: x1_7_ + x24_7_ <= 1
 R105: x1_8_ + x24_8_ <= 1
 R106: x1_9_ + x24_9_ <= 1
 R107: x1_7_ + x2_7_ <= 1
 R108: x1_8_ + x2_8_ <= 1
 R109: x1_9_ + x2_9_ <= 1
 R110: x2_7_ + x4_7_ <= 1
 R111: x2_8_ + x4_8_ <= 1
 R112: x2_9_ + x4_9_ <= 1
 R113: x2_7_ + x5_7_ <= 1
 R114: x2_8_ + x5_8_ <= 1
 R115: x2_9_ + x5_9_ <= 1
 R116: x2_7_ + x6_7_ <= 1
 R117: x2_8_ + x6_8_ <= 1
 R118: x2_9_ + x6_9_ <= 1
 R119: x2_7_ + x8_7_ <= 1
 R120: x2_8_ + x8_8_ <= 1
 R121: x2_9_ + x8_9_ <= 1
 R122: x2_7_ + x9_7_ <= 1
 R123: x2_8_ + x9_8_ <= 1
 R124: x2_9_ + x9_9_ <= 1
 R125: x2_7_ + x12_7_ <= 1
 R126: x2_8_ + x12_8_ <= 1
 R127: x2_9_ + x12_9_ <= 1
 R128: x2_7_ + x13_7_ <= 1
 R129: x2_8_ + x13_8_ <= 1
 R130: x2_9_ + x13_9_ <= 1
 R131: x2_7_ + x14_7_ <= 1
 R132: x2_8_ + x14_8_ <= 1
 R133: x2_9_ + x14_9_ <= 1
 R134: x2_7_ + x15_7_ <= 1
 R135: x2_8_ + x15_8_ <= 1
 R136: x2_9_ + x15_9_ <= 1
 R137: x2_7_ + x16_7_ <= 1
 R138: x2_8_ + x16_8_ <= 1
 R139: x2_9_ + x16_9_ <= 1
 R140: x2_7_ + x20_7_ <= 1
 R141: x2_8_ + x20_8_ <= 1
 R142: x2_9_ + x20_9_ <= 1
 R143: x2_7_ + x21_7_ <= 1
 R144: x2_8_ + x21_8_ <= 1
 R145: x2_9_ + x21_9_ <= 1
 R146: x2_7_ + x23_7_ <= 1
 R147: x2_8_ + x23_8_ <= 1
 R148: x2_9_ + x23_9_ <= 1
 R149: x2_7_ + x24_7_ <= 1
 R150: x2_8_ + x24_8_ <= 1
 R151: x2_9_ + x24_9_ <= 1
 R152: x0_6_ + x3_6_ <= 1
 R153: x0_7_ + x3_7_ <= 1
 R154: x0_8_ + x3_8_ <= 1
 R155: x0_9_ + x3_9_ <= 1
 R156: x3_6_ + x7_6_ <= 1
 R157: x3_7_ + x7_7_ <= 1
 R158: x3_8_ + x7_8_ <= 1
 R159: x3_9_ + x7_9_ <= 1
 R160: x3_6_ + x10_6_ <= 1
 R161: x3_7_ + x10_7_ <= 1
 R162: x3_8_ + x10_8_ <= 1
 R163: x3_9_ + x10_9_ <= 1
 R164: x3_6_ + x13_6_ <= 1
 R165: x3_7_ + x13_7_ <= 1
 R166: x3_8_ + x13_8_ <= 1
 R167: x3_9_ + x13_9_ <= 1
 R168: x3_6_ + x17_6_ <= 1
 R169: x3_7_ + x17_7_ <= 1
 R170: x3_8_ + x17_8_ <= 1
 R171: x3_9_ + x17_9_ <= 1
 R172: x3_6_ + x18_6_ <= 1
 R173: x3_7_ + x18_7_ <= 1
 R174: x3_8_ + x18_8_ <= 1
 R175: x3_9_ + x18_9_ <= 1
 R176: x3_6_ + x19_6_ <= 1
 R177: x3_7_ + x19_7_ <= 1
 R178: x3_8_ + x19_8_ <= 1
 R179: x3_9_ + x19_9_ <= 1
 R180: x3_6_ + x22_6_ <= 1
 R181: x3_7_ + x22_7_ <= 1
 R182: x3_8_ + x22_8_ <= 1
 R183: x3_9_ + x22_9_ <= 1
 R184: x3_6_ + x23_6_ <= 1
 R185: x3_7_ + x23_7_ <= 1
 R186: x3_8_ + x23_8_ <= 1
 R187: x3_9_ + x23_9_ <= 1
 R188: x1_6_ + x4_6_ <= 1
 R189: x1_7_ + x4_7_ <= 1
 R190: x1_8_ + x4_8_ <= 1
 R191: x1_9_ + x4_9_ <= 1
 R192: x4_6_ + x5_6_ <= 1
 R193: x4_7_ + x5_7_ <= 1
 R194: x4_8_ + x5_8_ <= 1
 R195: x4_9_ + x5_9_ <= 1
 R196: x4_6_ + x8_6_ <= 1
 R197: x4_7_ + x8_7_ <= 1
 R198: x4_8_ + x8_8_ <= 1
 R199: x4_9_ + x8_9_ <= 1
 R200: x4_6_ + x9_6_ <= 1
 R201: x4_7_ + x9_7_ <= 1
 R202: x4_8_ + x9_8_ <= 1
 R203: x4_9_ + x9_9_ <= 1
 R204: x4_6_ + x12_6_ <= 1
 R205: x4_7_ + x12_7_ <= 1
 R206: x4_8_ + x12_8_ <= 1
 R207: x4_9_ + x12_9_ <= 1
 R208: x4_6_ + x14_6_ <= 1
 R209: x4_7_ + x14_7_ <= 1
 R210: x4_8_ + x14_8_ <= 1
 R211: x4_9_ + x14_9_ <= 1
 R212: x4_6_ + x15_6_ <= 1
 R213: x4_7_ + x15_7_ <= 1
 R214: x4_8_ + x15_8_ <= 1
 R215: x4_9_ + x15_9_ <= 1
 R216: x4_6_ + x16_6_ <= 1
 R217: x4_7_ + x16_7_ <= 1
 R218: x4_8_ + x16_8_ <= 1
 R219: x4_9_ + x16_9_ <= 1
 R220: x4_6_ + x20_6_ <= 1
 R221: x4_7_ + x20_7_ <= 1
 R222: x4_8_ + x20_8_ <= 1
 R223: x4_9_ + x20_9_ <= 1
 R224: x4_6_ + x24_6_ <= 1
 R225: x4_7_ + x24_7_ <= 1
 R226: x4_8_ + x24_8_ <= 1
 R227: x4_9_ + x24_9_ <= 1
 R228: x5_0_ + x9_0_ <= 1
 R229: x5_1_ + x9_1_ <= 1
 R230: x5_2_ + x9_2_ <= 1
 R231: x5_3_ + x9_3_ <= 1
 R232: x5_4_ + x9_4_ <= 1
 R233: x5_5_ + x9_5_ <= 1
 R234: x5_6_ + x9_6_ <= 1
 R235: x5_7_ + x9_7_ <= 1
 R236: x5_8_ + x9_8_ <= 1
 R237: x5_9_ + x9_9_ <= 1
 R238: x5_0_ + x14_0_ <= 1
 R239: x5_1_ + x14_1_ <= 1
 R240: x5_2_ + x14_2_ <= 1
 R241: x5_3_ + x14_3_ <= 1
 R242: x5_4_ + x14_4_ <= 1
 R243: x5_5_ + x14_5_ <= 1
 R244: x5_6_ + x14_6_ <= 1
 R245: x5_7_ + x14_7_ <= 1
 R246: x5_8_ + x14_8_ <= 1
 R247: x5_9_ + x14_9_ <= 1
 R248: x5_0_ + x24_0_ <= 1
 R249: x5_1_ + x24_1_ <= 1
 R250: x5_2_ + x24_2_ <= 1
 R251: x5_3_ + x24_3_ <= 1
 R252: x5_4_ + x24_4_ <= 1
 R253: x5_5_ + x24_5_ <= 1
 R254: x5_6_ + x24_6_ <= 1
 R255: x5_7_ + x24_7_ <= 1
 R256: x5_8_ + x24_8_ <= 1
 R257: x5_9_ + x24_9_ <= 1
 R258: x2_7_ + x6_7_ <= 1
 R259: x2_8_ + x6_8_ <= 1
 R260: x2_9_ + x6_9_ <= 1
 R261: x4_7_ + x6_7_ <= 1
 R262: x4_8_ + x6_8_ <= 1
 R263: x4_9_ + x6_9_ <= 1
 R264: x6_7_ + x8_7_ <= 1
 R265: x6_8_ + x8_8_ <= 1
 R266: x6_9_ + x8_9_ <= 1
 R267: x6_7_ + x9_7_ <= 1
 R268: x6_8_ + x9_8_ <= 1
 R269: x6_9_ + x9_9_ <= 1
 R270: x6_7_ + x12_7_ <= 1
 R271: x6_8_ + x12_8_ <= 1
 R272: x6_9_ + x12_9_ <= 1
 R273: x6_7_ + x13_7_ <= 1
 R274: x6_8_ + x13_8_ <= 1
 R275: x6_9_ + x13_9_ <= 1
 R276: x6_7_ + x16_7_ <= 1
 R277: x6_8_ + x16_8_ <= 1
 R278: x6_9_ + x16_9_ <= 1
 R279: x6_7_ + x21_7_ <= 1
 R280: x6_8_ + x21_8_ <= 1
 R281: x6_9_ + x21_9_ <= 1
 R282: x6_7_ + x23_7_ <= 1
 R283: x6_8_ + x23_8_ <= 1
 R284: x6_9_ + x23_9_ <= 1
 R285: x0_0_ + x7_0_ <= 1
 R286: x0_1_ + x7_1_ <= 1
 R287: x0_2_ + x7_2_ <= 1
 R288: x0_3_ + x7_3_ <= 1
 R289: x0_4_ + x7_4_ <= 1
 R290: x0_5_ + x7_5_ <= 1
 R291: x0_6_ + x7_6_ <= 1
 R292: x0_7_ + x7_7_ <= 1
 R293: x0_8_ + x7_8_ <= 1
 R294: x0_9_ + x7_9_ <= 1
 R295: x7_0_ + x10_0_ <= 1
 R296: x7_1_ + x10_1_ <= 1
 R297: x7_2_ + x10_2_ <= 1
 R298: x7_3_ + x10_3_ <= 1
 R299: x7_4_ + x10_4_ <= 1
 R300: x7_5_ + x10_5_ <= 1
 R301: x7_6_ + x10_6_ <= 1
 R302: x7_7_ + x10_7_ <= 1
 R303: x7_8_ + x10_8_ <= 1
 R304: x7_9_ + x10_9_ <= 1
 R305: x7_0_ + x13_0_ <= 1
 R306: x7_1_ + x13_1_ <= 1
 R307: x7_2_ + x13_2_ <= 1
 R308: x7_3_ + x13_3_ <= 1
 R309: x7_4_ + x13_4_ <= 1
 R310: x7_5_ + x13_5_ <= 1
 R311: x7_6_ + x13_6_ <= 1
 R312: x7_7_ + x13_7_ <= 1
 R313: x7_8_ + x13_8_ <= 1
 R314: x7_9_ + x13_9_ <= 1
 R315: x7_0_ + x17_0_ <= 1
 R316: x7_1_ + x17_1_ <= 1
 R317: x7_2_ + x17_2_ <= 1
 R318: x7_3_ + x17_3_ <= 1
 R319: x7_4_ + x17_4_ <= 1
 R320: x7_5_ + x17_5_ <= 1
 R321: x7_6_ + x17_6_ <= 1
 R322: x7_7_ + x17_7_ <= 1
 R323: x7_8_ + x17_8_ <= 1
 R324: x7_9_ + x17_9_ <= 1
 R325: x7_0_ + x22_0_ <= 1
 R326: x7_1_ + x22_1_ <= 1
 R327: x7_2_ + x22_2_ <= 1
 R328: x7_3_ + x22_3_ <= 1
 R329: x7_4_ + x22_4_ <= 1
 R330: x7_5_ + x22_5_ <= 1
 R331: x7_6_ + x22_6_ <= 1
 R332: x7_7_ + x22_7_ <= 1
 R333: x7_8_ + x22_8_ <= 1
 R334: x7_9_ + x22_9_ <= 1
 R335: x1_6_ + x8_6_ <= 1
 R336: x1_7_ + x8_7_ <= 1
 R337: x1_8_ + x8_8_ <= 1
 R338: x1_9_ + x8_9_ <= 1
 R339: x4_6_ + x8_6_ <= 1
 R340: x4_7_ + x8_7_ <= 1
 R341: x4_8_ + x8_8_ <= 1
 R342: x4_9_ + x8_9_ <= 1
 R343: x5_6_ + x8_6_ <= 1
 R344: x5_7_ + x8_7_ <= 1
 R345: x5_8_ + x8_8_ <= 1
 R346: x5_9_ + x8_9_ <= 1
 R347: x7_6_ + x8_6_ <= 1
 R348: x7_7_ + x8_7_ <= 1
 R349: x7_8_ + x8_8_ <= 1
 R350: x7_9_ + x8_9_ <= 1
 R351: x8_6_ + x9_6_ <= 1
 R352: x8_7_ + x9_7_ <= 1
 R353: x8_8_ + x9_8_ <= 1
 R354: x8_9_ + x9_9_ <= 1
 R355: x8_6_ + x10_6_ <= 1
 R356: x8_7_ + x10_7_ <= 1
 R357: x8_8_ + x10_8_ <= 1
 R358: x8_9_ + x10_9_ <= 1
 R359: x8_6_ + x12_6_ <= 1
 R360: x8_7_ + x12_7_ <= 1
 R361: x8_8_ + x12_8_ <= 1
 R362: x8_9_ + x12_9_ <= 1
 R363: x8_6_ + x13_6_ <= 1
 R364: x8_7_ + x13_7_ <= 1
 R365: x8_8_ + x13_8_ <= 1
 R366: x8_9_ + x13_9_ <= 1
 R367: x8_6_ + x15_6_ <= 1
 R368: x8_7_ + x15_7_ <= 1
 R369: x8_8_ + x15_8_ <= 1
 R370: x8_9_ + x15_9_ <= 1
 R371: x8_6_ + x16_6_ <= 1
 R372: x8_7_ + x16_7_ <= 1
 R373: x8_8_ + x16_8_ <= 1
 R374: x8_9_ + x16_9_ <= 1
 R375: x8_6_ + x19_6_ <= 1
 R376: x8_7_ + x19_7_ <= 1
 R377: x8_8_ + x19_8_ <= 1
 R378: x8_9_ + x19_9_ <= 1
 R379: x8_6_ + x21_6_ <= 1
 R380: x8_7_ + x21_7_ <= 1
 R381: x8_8_ + x21_8_ <= 1
 R382: x8_9_ + x21_9_ <= 1
 R383: x8_6_ + x23_6_ <= 1
 R384: x8_7_ + x23_7_ <= 1
 R385: x8_8_ + x23_8_ <= 1
 R386: x8_9_ + x23_9_ <= 1
 R387: x8_6_ + x24_6_ <= 1
 R388: x8_7_ + x24_7_ <= 1
 R389: x8_8_ + x24_8_ <= 1
 R390: x8_9_ + x24_9_ <= 1
 R391: x5_0_ + x9_0_ <= 1
 R392: x5_1_ + x9_1_ <= 1
 R393: x5_2_ + x9_2_ <= 1
 R394: x5_3_ + x9_3_ <= 1
 R395: x5_4_ + x9_4_ <= 1
 R396: x5_5_ + x9_5_ <= 1
 R397: x5_6_ + x9_6_ <= 1
 R398: x5_7_ + x9_7_ <= 1
 R399: x5_8_ + x9_8_ <= 1
 R400: x5_9_ + x9_9_ <= 1
 R401: x9_0_ + x24_0_ <= 1
 R402: x9_1_ + x24_1_ <= 1
 R403: x9_2_ + x24_2_ <= 1
 R404: x9_3_ + x24_3_ <= 1
 R405: x9_4_ + x24_4_ <= 1
 R406: x9_5_ + x24_5_ <= 1
 R407: x9_6_ + x24_6_ <= 1
 R408: x9_7_ + x24_7_ <= 1
 R409: x9_8_ + x24_8_ <= 1
 R410: x9_9_ + x24_9_ <= 1
 R411: x0_0_ + x10_0_ <= 1
 R412: x0_1_ + x10_1_ <= 1
 R413: x0_2_ + x10_2_ <= 1
 R414: x0_3_ + x10_3_ <= 1
 R415: x0_4_ + x10_4_ <= 1
 R416: x0_5_ + x10_5_ <= 1
 R417: x0_6_ + x10_6_ <= 1
 R418: x0_7_ + x10_7_ <= 1
 R419: x0_8_ + x10_8_ <= 1
 R420: x0_9_ + x10_9_ <= 1
 R421: x7_0_ + x10_0_ <= 1
 R422: x7_1_ + x10_1_ <= 1
 R423: x7_2_ + x10_2_ <= 1
 R424: x7_3_ + x10_3_ <= 1
 R425: x7_4_ + x10_4_ <= 1
 R426: x7_5_ + x10_5_ <= 1
 R427: x7_6_ + x10_6_ <= 1
 R428: x7_7_ + x10_7_ <= 1
 R429: x7_8_ + x10_8_ <= 1
 R430: x7_9_ + x10_9_ <= 1
 R431: x10_0_ + x13_0_ <= 1
 R432: x10_1_ + x13_1_ <= 1
 R433: x10_2_ + x13_2_ <= 1
 R434: x10_3_ + x13_3_ <= 1
 R435: x10_4_ + x13_4_ <= 1
 R436: x10_5_ + x13_5_ <= 1
 R437: x10_6_ + x13_6_ <= 1
 R438: x10_7_ + x13_7_ <= 1
 R439: x10_8_ + x13_8_ <= 1
 R440: x10_9_ + x13_9_ <= 1
 R441: x10_0_ + x17_0_ <= 1
 R442: x10_1_ + x17_1_ <= 1
 R443: x10_2_ + x17_2_ <= 1
 R444: x10_3_ + x17_3_ <= 1
 R445: x10_4_ + x17_4_ <= 1
 R446: x10_5_ + x17_5_ <= 1
 R447: x10_6_ + x17_6_ <= 1
 R448: x10_7_ + x17_7_ <= 1
 R449: x10_8_ + x17_8_ <= 1
 R450: x10_9_ + x17_9_ <= 1
 R451: x10_0_ + x22_0_ <= 1
 R452: x10_1_ + x22_1_ <= 1
 R453: x10_2_ + x22_2_ <= 1
 R454: x10_3_ + x22_3_ <= 1
 R455: x10_4_ + x22_4_ <= 1
 R456: x10_5_ + x22_5_ <= 1
 R457: x10_6_ + x22_6_ <= 1
 R458: x10_7_ + x22_7_ <= 1
 R459: x10_8_ + x22_8_ <= 1
 R460: x10_9_ + x22_9_ <= 1
 R461: x0_7_ + x11_7_ <= 1
 R462: x0_8_ + x11_8_ <= 1
 R463: x0_9_ + x11_9_ <= 1
 R464: x3_7_ + x11_7_ <= 1
 R465: x3_8_ + x11_8_ <= 1
 R466: x3_9_ + x11_9_ <= 1
 R467: x7_7_ + x11_7_ <= 1
 R468: x7_8_ + x11_8_ <= 1
 R469: x7_9_ + x11_9_ <= 1
 R470: x10_7_ + x11_7_ <= 1
 R471: x10_8_ + x11_8_ <= 1
 R472: x10_9_ + x11_9_ <= 1
 R473: x11_7_ + x13_7_ <= 1
 R474: x11_8_ + x13_8_ <= 1
 R475: x11_9_ + x13_9_ <= 1
 R476: x11_7_ + x17_7_ <= 1
 R477: x11_8_ + x17_8_ <= 1
 R478: x11_9_ + x17_9_ <= 1
 R479: x11_7_ + x18_7_ <= 1
 R480: x11_8_ + x18_8_ <= 1
 R481: x11_9_ + x18_9_ <= 1
 R482: x11_7_ + x19_7_ <= 1
 R483: x11_8_ + x19_8_ <= 1
 R484: x11_9_ + x19_9_ <= 1
 R485: x11_7_ + x22_7_ <= 1
 R486: x11_8_ + x22_8_ <= 1
 R487: x11_9_ + x22_9_ <= 1
 R488: x11_7_ + x23_7_ <= 1
 R489: x11_8_ + x23_8_ <= 1
 R490: x11_9_ + x23_9_ <= 1
 R491: x4_6_ + x12_6_ <= 1
 R492: x4_7_ + x12_7_ <= 1
 R493: x4_8_ + x12_8_ <= 1
 R494: x4_9_ + x12_9_ <= 1
 R495: x8_6_ + x12_6_ <= 1
 R496: x8_7_ + x12_7_ <= 1
 R497: x8_8_ + x12_8_ <= 1
 R498: x8_9_ + x12_9_ <= 1
 R499: x9_6_ + x12_6_ <= 1
 R500: x9_7_ + x12_7_ <= 1
 R501: x9_8_ + x12_8_ <= 1
 R502: x9_9_ + x12_9_ <= 1
 R503: x12_6_ + x16_6_ <= 1
 R504: x12_7_ + x16_7_ <= 1
 R505: x12_8_ + x16_8_ <= 1
 R506: x12_9_ + x16_9_ <= 1
 R507: x12_6_ + x21_6_ <= 1
 R508: x12_7_ + x21_7_ <= 1
 R509: x12_8_ + x21_8_ <= 1
 R510: x12_9_ + x21_9_ <= 1
 R511: x0_0_ + x13_0_ <= 1
 R512: x0_1_ + x13_1_ <= 1
 R513: x0_2_ + x13_2_ <= 1
 R514: x0_3_ + x13_3_ <= 1
 R515: x0_4_ + x13_4_ <= 1
 R516: x0_5_ + x13_5_ <= 1
 R517: x0_6_ + x13_6_ <= 1
 R518: x0_7_ + x13_7_ <= 1
 R519: x0_8_ + x13_8_ <= 1
 R520: x0_9_ + x13_9_ <= 1
 R521: x7_0_ + x13_0_ <= 1
 R522: x7_1_ + x13_1_ <= 1
 R523: x7_2_ + x13_2_ <= 1
 R524: x7_3_ + x13_3_ <= 1
 R525: x7_4_ + x13_4_ <= 1
 R526: x7_5_ + x13_5_ <= 1
 R527: x7_6_ + x13_6_ <= 1
 R528: x7_7_ + x13_7_ <= 1
 R529: x7_8_ + x13_8_ <= 1
 R530: x7_9_ + x13_9_ <= 1
 R531: x10_0_ + x13_0_ <= 1
 R532: x10_1_ + x13_1_ <= 1
 R533: x10_2_ + x13_2_ <= 1
 R534: x10_3_ + x13_3_ <= 1
 R535: x10_4_ + x13_4_ <= 1
 R536: x10_5_ + x13_5_ <= 1
 R537: x10_6_ + x13_6_ <= 1
 R538: x10_7_ + x13_7_ <= 1
 R539: x10_8_ + x13_8_ <= 1
 R540: x10_9_ + x13_9_ <= 1
 R541: x13_0_ + x17_0_ <= 1
 R542: x13_1_ + x17_1_ <= 1
 R543: x13_2_ + x17_2_ <= 1
 R544: x13_3_ + x17_3_ <= 1
 R545: x13_4_ + x17_4_ <= 1
 R546: x13_5_ + x17_5_ <= 1
 R547: x13_6_ + x17_6_ <= 1
 R548: x13_7_ + x17_7_ <= 1
 R549: x13_8_ + x17_8_ <= 1
 R550: x13_9_ + x17_9_ <= 1
 R551: x13_0_ + x22_0_ <= 1
 R552: x13_1_ + x22_1_ <= 1
 R553: x13_2_ + x22_2_ <= 1
 R554: x13_3_ + x22_3_ <= 1
 R555: x13_4_ + x22_4_ <= 1
 R556: x13_5_ + x22_5_ <= 1
 R557: x13_6_ + x22_6_ <= 1
 R558: x13_7_ + x22_7_ <= 1
 R559: x13_8_ + x22_8_ <= 1
 R560: x13_9_ + x22_9_ <= 1
 R561: x5_0_ + x14_0_ <= 1
 R562: x5_1_ + x14_1_ <= 1
 R563: x5_2_ + x14_2_ <= 1
 R564: x5_3_ + x14_3_ <= 1
 R565: x5_4_ + x14_4_ <= 1
 R566: x5_5_ + x14_5_ <= 1
 R567: x5_6_ + x14_6_ <= 1
 R568: x5_7_ + x14_7_ <= 1
 R569: x5_8_ + x14_8_ <= 1
 R570: x5_9_ + x14_9_ <= 1
 R571: x1_6_ + x15_6_ <= 1
 R572: x1_7_ + x15_7_ <= 1
 R573: x1_8_ + x15_8_ <= 1
 R574: x1_9_ + x15_9_ <= 1
 R575: x4_6_ + x15_6_ <= 1
 R576: x4_7_ + x15_7_ <= 1
 R577: x4_8_ + x15_8_ <= 1
 R578: x4_9_ + x15_9_ <= 1
 R579: x5_6_ + x15_6_ <= 1
 R580: x5_7_ + x15_7_ <= 1
 R581: x5_8_ + x15_8_ <= 1
 R582: x5_9_ + x15_9_ <= 1
 R583: x8_6_ + x15_6_ <= 1
 R584: x8_7_ + x15_7_ <= 1
 R585: x8_8_ + x15_8_ <= 1
 R586: x8_9_ + x15_9_ <= 1
 R587: x9_6_ + x15_6_ <= 1
 R588: x9_7_ + x15_7_ <= 1
 R589: x9_8_ + x15_8_ <= 1
 R590: x9_9_ + x15_9_ <= 1
 R591: x14_6_ + x15_6_ <= 1
 R592: x14_7_ + x15_7_ <= 1
 R593: x14_8_ + x15_8_ <= 1
 R594: x14_9_ + x15_9_ <= 1
 R595: x15_6_ + x20_6_ <= 1
 R596: x15_7_ + x20_7_ <= 1
 R597: x15_8_ + x20_8_ <= 1
 R598: x15_9_ + x20_9_ <= 1
 R599: x15_6_ + x24_6_ <= 1
 R600: x15_7_ + x24_7_ <= 1
 R601: x15_8_ + x24_8_ <= 1
 R602: x15_9_ + x24_9_ <= 1
 R603: x4_6_ + x16_6_ <= 1
 R604: x4_7_ + x16_7_ <= 1
 R605: x4_8_ + x16_8_ <= 1
 R606: x4_9_ + x16_9_ <= 1
 R607: x8_6_ + x16_6_ <= 1
 R608: x8_7_ + x16_7_ <= 1
 R609: x8_8_ + x16_8_ <= 1
 R610: x8_9_ + x16_9_ <= 1
 R611: x9_6_ + x16_6_ <= 1
 R612: x9_7_ + x16_7_ <= 1
 R613: x9_8_ + x16_8_ <= 1
 R614: x9_9_ + x16_9_ <= 1
 R615: x12_6_ + x16_6_ <= 1
 R616: x12_7_ + x16_7_ <= 1
 R617: x12_8_ + x16_8_ <= 1
 R618: x12_9_ + x16_9_ <= 1
 R619: x13_6_ + x16_6_ <= 1
 R620: x13_7_ + x16_7_ <= 1
 R621: x13_8_ + x16_8_ <= 1
 R622: x13_9_ + x16_9_ <= 1
 R623: x16_6_ + x21_6_ <= 1
 R624: x16_7_ + x21_7_ <= 1
 R625: x16_8_ + x21_8_ <= 1
 R626: x16_9_ + x21_9_ <= 1
 R627: x16_6_ + x23_6_ <= 1
 R628: x16_7_ + x23_7_ <= 1
 R629: x16_8_ + x23_8_ <= 1
 R630: x16_9_ + x23_9_ <= 1
 R631: x0_0_ + x17_0_ <= 1
 R632: x0_1_ + x17_1_ <= 1
 R633: x0_2_ + x17_2_ <= 1
 R634: x0_3_ + x17_3_ <= 1
 R635: x0_4_ + x17_4_ <= 1
 R636: x0_5_ + x17_5_ <= 1
 R637: x0_6_ + x17_6_ <= 1
 R638: x0_7_ + x17_7_ <= 1
 R639: x0_8_ + x17_8_ <= 1
 R640: x0_9_ + x17_9_ <= 1
 R641: x7_0_ + x17_0_ <= 1
 R642: x7_1_ + x17_1_ <= 1
 R643: x7_2_ + x17_2_ <= 1
 R644: x7_3_ + x17_3_ <= 1
 R645: x7_4_ + x17_4_ <= 1
 R646: x7_5_ + x17_5_ <= 1
 R647: x7_6_ + x17_6_ <= 1
 R648: x7_7_ + x17_7_ <= 1
 R649: x7_8_ + x17_8_ <= 1
 R650: x7_9_ + x17_9_ <= 1
 R651: x10_0_ + x17_0_ <= 1
 R652: x10_1_ + x17_1_ <= 1
 R653: x10_2_ + x17_2_ <= 1
 R654: x10_3_ + x17_3_ <= 1
 R655: x10_4_ + x17_4_ <= 1
 R656: x10_5_ + x17_5_ <= 1
 R657: x10_6_ + x17_6_ <= 1
 R658: x10_7_ + x17_7_ <= 1
 R659: x10_8_ + x17_8_ <= 1
 R660: x10_9_ + x17_9_ <= 1
 R661: x13_0_ + x17_0_ <= 1
 R662: x13_1_ + x17_1_ <= 1
 R663: x13_2_ + x17_2_ <= 1
 R664: x13_3_ + x17_3_ <= 1
 R665: x13_4_ + x17_4_ <= 1
 R666: x13_5_ + x17_5_ <= 1
 R667: x13_6_ + x17_6_ <= 1
 R668: x13_7_ + x17_7_ <= 1
 R669: x13_8_ + x17_8_ <= 1
 R670: x13_9_ + x17_9_ <= 1
 R671: x17_0_ + x22_0_ <= 1
 R672: x17_1_ + x22_1_ <= 1
 R673: x17_2_ + x22_2_ <= 1
 R674: x17_3_ + x22_3_ <= 1
 R675: x17_4_ + x22_4_ <= 1
 R676: x17_5_ + x22_5_ <= 1
 R677: x17_6_ + x22_6_ <= 1
 R678: x17_7_ + x22_7_ <= 1
 R679: x17_8_ + x22_8_ <= 1
 R680: x17_9_ + x22_9_ <= 1
 R681: x0_6_ + x18_6_ <= 1
 R682: x0_7_ + x18_7_ <= 1
 R683: x0_8_ + x18_8_ <= 1
 R684: x0_9_ + x18_9_ <= 1
 R685: x3_6_ + x18_6_ <= 1
 R686: x3_7_ + x18_7_ <= 1
 R687: x3_8_ + x18_8_ <= 1
 R688: x3_9_ + x18_9_ <= 1
 R689: x7_6_ + x18_6_ <= 1
 R690: x7_7_ + x18_7_ <= 1
 R691: x7_8_ + x18_8_ <= 1
 R692: x7_9_ + x18_9_ <= 1
 R693: x10_6_ + x18_6_ <= 1
 R694: x10_7_ + x18_7_ <= 1
 R695: x10_8_ + x18_8_ <= 1
 R696: x10_9_ + x18_9_ <= 1
 R697: x13_6_ + x18_6_ <= 1
 R698: x13_7_ + x18_7_ <= 1
 R699: x13_8_ + x18_8_ <= 1
 R700: x13_9_ + x18_9_ <= 1
 R701: x17_6_ + x18_6_ <= 1
 R702: x17_7_ + x18_7_ <= 1
 R703: x17_8_ + x18_8_ <= 1
 R704: x17_9_ + x18_9_ <= 1
 R705: x18_6_ + x19_6_ <= 1
 R706: x18_7_ + x19_7_ <= 1
 R707: x18_8_ + x19_8_ <= 1
 R708: x18_9_ + x19_9_ <= 1
 R709: x18_6_ + x22_6_ <= 1
 R710: x18_7_ + x22_7_ <= 1
 R711: x18_8_ + x22_8_ <= 1
 R712: x18_9_ + x22_9_ <= 1
 R713: x18_6_ + x23_6_ <= 1
 R714: x18_7_ + x23_7_ <= 1
 R715: x18_8_ + x23_8_ <= 1
 R716: x18_9_ + x23_9_ <= 1
 R717: x0_6_ + x19_6_ <= 1
 R718: x0_7_ + x19_7_ <= 1
 R719: x0_8_ + x19_8_ <= 1
 R720: x0_9_ + x19_9_ <= 1
 R721: x3_6_ + x19_6_ <= 1
 R722: x3_7_ + x19_7_ <= 1
 R723: x3_8_ + x19_8_ <= 1
 R724: x3_9_ + x19_9_ <= 1
 R725: x7_6_ + x19_6_ <= 1
 R726: x7_7_ + x19_7_ <= 1
 R727: x7_8_ + x19_8_ <= 1
 R728: x7_9_ + x19_9_ <= 1
 R729: x8_6_ + x19_6_ <= 1
 R730: x8_7_ + x19_7_ <= 1
 R731: x8_8_ + x19_8_ <= 1
 R732: x8_9_ + x19_9_ <= 1
 R733: x10_6_ + x19_6_ <= 1
 R734: x10_7_ + x19_7_ <= 1
 R735: x10_8_ + x19_8_ <= 1
 R736: x10_9_ + x19_9_ <= 1
 R737: x13_6_ + x19_6_ <= 1
 R738: x13_7_ + x19_7_ <= 1
 R739: x13_8_ + x19_8_ <= 1
 R740: x13_9_ + x19_9_ <= 1
 R741: x17_6_ + x19_6_ <= 1
 R742: x17_7_ + x19_7_ <= 1
 R743: x17_8_ + x19_8_ <= 1
 R744: x17_9_ + x19_9_ <= 1
 R745: x18_6_ + x19_6_ <= 1
 R746: x18_7_ + x19_7_ <= 1
 R747: x18_8_ + x19_8_ <= 1
 R748: x18_9_ + x19_9_ <= 1
 R749: x19_6_ + x22_6_ <= 1
 R750: x19_7_ + x22_7_ <= 1
 R751: x19_8_ + x22_8_ <= 1
 R752: x19_9_ + x22_9_ <= 1
 R753: x19_6_ + x23_6_ <= 1
 R754: x19_7_ + x23_7_ <= 1
 R755: x19_8_ + x23_8_ <= 1
 R756: x19_9_ + x23_9_ <= 1
 R757: x1_6_ + x20_6_ <= 1
 R758: x1_7_ + x20_7_ <= 1
 R759: x1_8_ + x20_8_ <= 1
 R760: x1_9_ + x20_9_ <= 1
 R761: x4_6_ + x20_6_ <= 1
 R762: x4_7_ + x20_7_ <= 1
 R763: x4_8_ + x20_8_ <= 1
 R764: x4_9_ + x20_9_ <= 1
 R765: x5_6_ + x20_6_ <= 1
 R766: x5_7_ + x20_7_ <= 1
 R767: x5_8_ + x20_8_ <= 1
 R768: x5_9_ + x20_9_ <= 1
 R769: x14_6_ + x20_6_ <= 1
 R770: x14_7_ + x20_7_ <= 1
 R771: x14_8_ + x20_8_ <= 1
 R772: x14_9_ + x20_9_ <= 1
 R773: x15_6_ + x20_6_ <= 1
 R774: x15_7_ + x20_7_ <= 1
 R775: x15_8_ + x20_8_ <= 1
 R776: x15_9_ + x20_9_ <= 1
 R777: x8_6_ + x21_6_ <= 1
 R778: x8_7_ + x21_7_ <= 1
 R779: x8_8_ + x21_8_ <= 1
 R780: x8_9_ + x21_9_ <= 1
 R781: x9_6_ + x21_6_ <= 1
 R782: x9_7_ + x21_7_ <= 1
 R783: x9_8_ + x21_8_ <= 1
 R784: x9_9_ + x21_9_ <= 1
 R785: x12_6_ + x21_6_ <= 1
 R786: x12_7_ + x21_7_ <= 1
 R787: x12_8_ + x21_8_ <= 1
 R788: x12_9_ + x21_9_ <= 1
 R789: x13_6_ + x21_6_ <= 1
 R790: x13_7_ + x21_7_ <= 1
 R791: x13_8_ + x21_8_ <= 1
 R792: x13_9_ + x21_9_ <= 1
 R793: x16_6_ + x21_6_ <= 1
 R794: x16_7_ + x21_7_ <= 1
 R795: x16_8_ + x21_8_ <= 1
 R796: x16_9_ + x21_9_ <= 1
 R797: x21_6_ + x23_6_ <= 1
 R798: x21_7_ + x23_7_ <= 1
 R799: x21_8_ + x23_8_ <= 1
 R800: x21_9_ + x23_9_ <= 1
 R801: x0_0_ + x22_0_ <= 1
 R802: x0_1_ + x22_1_ <= 1
 R803: x0_2_ + x22_2_ <= 1
 R804: x0_3_ + x22_3_ <= 1
 R805: x0_4_ + x22_4_ <= 1
 R806: x0_5_ + x22_5_ <= 1
 R807: x0_6_ + x22_6_ <= 1
 R808: x0_7_ + x22_7_ <= 1
 R809: x0_8_ + x22_8_ <= 1
 R810: x0_9_ + x22_9_ <= 1
 R811: x7_0_ + x22_0_ <= 1
 R812: x7_1_ + x22_1_ <= 1
 R813: x7_2_ + x22_2_ <= 1
 R814: x7_3_ + x22_3_ <= 1
 R815: x7_4_ + x22_4_ <= 1
 R816: x7_5_ + x22_5_ <= 1
 R817: x7_6_ + x22_6_ <= 1
 R818: x7_7_ + x22_7_ <= 1
 R819: x7_8_ + x22_8_ <= 1
 R820: x7_9_ + x22_9_ <= 1
 R821: x10_0_ + x22_0_ <= 1
 R822: x10_1_ + x22_1_ <= 1
 R823: x10_2_ + x22_2_ <= 1
 R824: x10_3_ + x22_3_ <= 1
 R825: x10_4_ + x22_4_ <= 1
 R826: x10_5_ + x22_5_ <= 1
 R827: x10_6_ + x22_6_ <= 1
 R828: x10_7_ + x22_7_ <= 1
 R829: x10_8_ + x22_8_ <= 1
 R830: x10_9_ + x22_9_ <= 1
 R831: x13_0_ + x22_0_ <= 1
 R832: x13_1_ + x22_1_ <= 1
 R833: x13_2_ + x22_2_ <= 1
 R834: x13_3_ + x22_3_ <= 1
 R835: x13_4_ + x22_4_ <= 1
 R836: x13_5_ + x22_5_ <= 1
 R837: x13_6_ + x22_6_ <= 1
 R838: x13_7_ + x22_7_ <= 1
 R839: x13_8_ + x22_8_ <= 1
 R840: x13_9_ + x22_9_ <= 1
 R841: x17_0_ + x22_0_ <= 1
 R842: x17_1_ + x22_1_ <= 1
 R843: x17_2_ + x22_2_ <= 1
 R844: x17_3_ + x22_3_ <= 1
 R845: x17_4_ + x22_4_ <= 1
 R846: x17_5_ + x22_5_ <= 1
 R847: x17_6_ + x22_6_ <= 1
 R848: x17_7_ + x22_7_ <= 1
 R849: x17_8_ + x22_8_ <= 1
 R850: x17_9_ + x22_9_ <= 1
 R851: x0_6_ + x23_6_ <= 1
 R852: x0_7_ + x23_7_ <= 1
 R853: x0_8_ + x23_8_ <= 1
 R854: x0_9_ + x23_9_ <= 1
 R855: x3_6_ + x23_6_ <= 1
 R856: x3_7_ + x23_7_ <= 1
 R857: x3_8_ + x23_8_ <= 1
 R858: x3_9_ + x23_9_ <= 1
 R859: x7_6_ + x23_6_ <= 1
 R860: x7_7_ + x23_7_ <= 1
 R861: x7_8_ + x23_8_ <= 1
 R862: x7_9_ + x23_9_ <= 1
 R863: x8_6_ + x23_6_ <= 1
 R864: x8_7_ + x23_7_ <= 1
 R865: x8_8_ + x23_8_ <= 1
 R866: x8_9_ + x23_9_ <= 1
 R867: x10_6_ + x23_6_ <= 1
 R868: x10_7_ + x23_7_ <= 1
 R869: x10_8_ + x23_8_ <= 1
 R870: x10_9_ + x23_9_ <= 1
 R871: x13_6_ + x23_6_ <= 1
 R872: x13_7_ + x23_7_ <= 1
 R873: x13_8_ + x23_8_ <= 1
 R874: x13_9_ + x23_9_ <= 1
 R875: x16_6_ + x23_6_ <= 1
 R876: x16_7_ + x23_7_ <= 1
 R877: x16_8_ + x23_8_ <= 1
 R878: x16_9_ + x23_9_ <= 1
 R879: x17_6_ + x23_6_ <= 1
 R880: x17_7_ + x23_7_ <= 1
 R881: x17_8_ + x23_8_ <= 1
 R882: x17_9_ + x23_9_ <= 1
 R883: x18_6_ + x23_6_ <= 1
 R884: x18_7_ + x23_7_ <= 1
 R885: x18_8_ + x23_8_ <= 1
 R886: x18_9_ + x23_9_ <= 1
 R887: x19_6_ + x23_6_ <= 1
 R888: x19_7_ + x23_7_ <= 1
 R889: x19_8_ + x23_8_ <= 1
 R890: x19_9_ + x23_9_ <= 1
 R891: x21_6_ + x23_6_ <= 1
 R892: x21_7_ + x23_7_ <= 1
 R893: x21_8_ + x23_8_ <= 1
 R894: x21_9_ + x23_9_ <= 1
 R895: x22_6_ + x23_6_ <= 1
 R896: x22_7_ + x23_7_ <= 1
 R897: x22_8_ + x23_8_ <= 1
 R898: x22_9_ + x23_9_ <= 1
 R899: x5_0_ + x24_0_ <= 1
 R900: x5_1_ + x24_1_ <= 1
 R901: x5_2_ + x24_2_ <= 1
 R902: x5_3_ + x24_3_ <= 1
 R903: x5_4_ + x24_4_ <= 1
 R904: x5_5_ + x24_5_ <= 1
 R905: x5_6_ + x24_6_ <= 1
 R906: x5_7_ + x24_7_ <= 1
 R907: x5_8_ + x24_8_ <= 1
 R908: x5_9_ + x24_9_ <= 1
 R909: x9_0_ + x24_0_ <= 1
 R910: x9_1_ + x24_1_ <= 1
 R911: x9_2_ + x24_2_ <= 1
 R912: x9_3_ + x24_3_ <= 1
 R913: x9_4_ + x24_4_ <= 1
 R914: x9_5_ + x24_5_ <= 1
 R915: x9_6_ + x24_6_ <= 1
 R916: x9_7_ + x24_7_ <= 1
 R917: x9_8_ + x24_8_ <= 1
 R918: x9_9_ + x24_9_ <= 1
 R919: <= 1
 R920: 27 x0_0_ + 27 x0_1_ + 27 x0_2_ + 27 x0_3_ + 27 x0_4_ + 27 x0_5_
   + 21 x0_6_ + 6 x0_7_ + 6 x0_8_ + 6 x0_9_ + 216 x1_7_ + 216 x1_8_
   + 216 x1_9_ + 102 x2_7_ + 102 x2_8_ + 102 x2_9_ + 216 x3_7_ + 216 x3_8_
   + 216 x3_9_ + 288 x4_7_ + 288 x4_8_ + 288 x4_9_ + 27 x5_0_ + 27 x5_1_
   + 27 x5_2_ + 27 x5_3_ + 27 x5_4_ + 27 x5_5_ + 21 x5_6_ + 6 x5_7_
   + 6 x5_8_ + 6 x5_9_ + 51 x6_7_ + 51 x6_8_ + 51 x6_9_ + 54 x7_0_
   + 54 x7_1_ + 54 x7_2_ + 54 x7_3_ + 54 x7_4_ + 54 x7_5_ + 42 x7_6_
   + 12 x7_7_ + 12 x7_8_ + 12 x7_9_ + 360 x8_7_ + 360 x8_8_ + 360 x8_9_
   + 27 x9_0_ + 27 x9_1_ + 27 x9_2_ + 27 x9_3_ + 27 x9_4_ + 27 x9_5_
   + 21 x9_6_ + 6 x9_7_ + 6 x9_8_ + 6 x9_9_ + 45 x10_0_ + 45 x10_1_
   + 45 x10_2_ + 45 x10_3_ + 45 x10_4_ + 45 x10_5_ + 35 x10_6_ + 10 x10_7_
   + 10 x10_8_ + 10 x10_9_ + 51 x11_7_ + 51 x11_8_ + 51 x11_9_ + 144 x12_7_
   + 144 x12_8_ + 144 x12_9_ + 54 x13_0_ + 54 x13_1_ + 54 x13_2_
   + 54 x13_3_ + 54 x13_4_ + 54 x13_5_ + 42 x13_6_ + 12 x13_7_ + 12 x13_8_
   + 12 x13_9_ + 18 x14_0_ + 18 x14_1_ + 18 x14_2_ + 18 x14_3_ + 18 x14_4_
   + 18 x14_5_ + 14 x14_6_ + 4 x14_7_ + 4 x14_8_ + 4 x14_9_ + 288 x15_7_
   + 288 x15_8_ + 288 x15_9_ + 216 x16_7_ + 216 x16_8_ + 216 x16_9_
   + 45 x17_0_ + 45 x17_1_ + 45 x17_2_ + 45 x17_3_ + 45 x17_4_ + 45 x17_5_
   + 35 x17_6_ + 10 x17_7_ + 10 x17_8_ + 10 x17_9_ + 216 x18_7_
   + 216 x18_8_ + 216 x18_9_ + 360 x19_7_ + 360 x19_8_ + 360 x19_9_
   + 144 x20_7_ + 144 x20_8_ + 144 x20_9_ + 144 x21_7_ + 144 x21_8_
   + 144 x21_9_ + 27 x22_0_ + 27 x22_1_ + 27 x22_2_ + 27 x22_3_ + 27 x22_4_
   + 27 x22_5_ + 21 x22_6_ + 6 x22_7_ + 6 x22_8_ + 6 x22_9_ + 360 x23_7_
   + 360 x23_8_ + 360 x23_9_ + 9 x24_0_ + 9 x24_1_ + 9 x24_2_ + 9 x24_3_
   + 9 x24_4_ + 9 x24_5_ + 7 x24_6_ + 2 x24_7_ + 2 x24_8_ + 2 x24_9_
   >= 2637
 R921: x0_5_ + x1_7_ + x2_n_ + x3_8_ + x4_n_ + x5_3_ + x6_n_ + x7_4_
   + x8_8_ + x9_0_ + x10_0_ + x11_n_ + x12_7_ + x13_3_ + x14_4_ + x15_9_
   + x16_9_ + x17_2_ + x18_n_ + x19_9_ + x20_8_ + x21_n_ + x22_1_ + x23_7_
   + x24_4_ <= 24
 R922: x0_4_ + x1_n_ + x2_n_ + x3_7_ + x4_9_ + x5_3_ + x6_n_ + x7_5_
   + x8_7_ + x9_1_ + x10_0_ + x11_n_ + x12_8_ + x13_1_ + x14_4_ + x15_8_
   + x16_n_ + x17_2_ + x18_6_ + x19_9_ + x20_7_ + x21_9_ + x22_3_ + x23_8_
   + x24_4_ <= 24
 R923: x0_3_ + x1_n_ + x2_n_ + x3_n_ + x4_7_ + x5_3_ + x6_n_ + x7_1_
   + x8_8_ + x9_2_ + x10_0_ + x11_n_ + x12_9_ + x13_5_ + x14_4_ + x15_9_
   + x16_n_ + x17_2_ + x18_8_ + x19_7_ + x20_8_ + x21_7_ + x22_4_ + x23_9_
   + x24_4_ <= 24
 R924: x0_1_ + x1_9_ + x2_n_ + x3_6_ + x4_n_ + x5_3_ + x6_n_ + x7_3_
   + x8_7_ + x9_5_ + x10_0_ + x11_n_ + x12_9_ + x13_4_ + x14_4_ + x15_8_
   + x16_8_ + x17_2_ + x18_7_ + x19_8_ + x20_7_ + x21_n_ + x22_5_ + x23_9_
   + x24_4_ <= 24
Bounds
Binaries
 x0_0_ x0_1_ x0_2_ x0_3_ x0_4_ x0_5_ x0_6_ x0_7_ x0_8_ x0_9_ x0_n_ x1_6_
 x1_7_ x1_8_ x1_9_ x1_n_ x2_7_ x2_8_ x2_9_ x2_n_ x3_6_ x3_7_ x3_8_ x3_9_
 x3_n_ x4_6_ x4_7_ x4_8_ x4_9_ x4_n_ x5_0_ x5_1_ x5_2_ x5_3_ x5_4_ x5_5_
 x5_6_ x5_7_ x5_8_ x5_9_ x5_n_ x6_7_ x6_8_ x6_9_ x6_n_ x7_0_ x7_1_ x7_2_
 x7_3_ x7_4_ x7_5_ x7_6_ x7_7_ x7_8_ x7_9_ x7_n_ x8_6_ x8_7_ x8_8_ x8_9_
 x8_n_ x9_0_ x9_1_ x9_2_ x9_3_ x9_4_ x9_5_ x9_6_ x9_7_ x9_8_ x9_9_ x9_n_
 x10_0_ x10_1_ x10_2_ x10_3_ x10_4_ x10_5_ x10_6_ x10_7_ x10_8_ x10_9_
 x10_n_ x11_7_ x11_8_ x11_9_ x11_n_ x12_6_ x12_7_ x12_8_ x12_9_ x12_n_
 x13_0_ x13_1_ x13_2_ x13_3_ x13_4_ x13_5_ x13_6_ x13_7_ x13_8_ x13_9_
 x13_n_ x14_0_ x14_1_ x14_2_ x14_3_ x14_4_ x14_5_ x14_6_ x14_7_ x14_8_
 x14_9_ x14_n_ x15_6_ x15_7_ x15_8_ x15_9_ x15_n_ x16_6_ x16_7_ x16_8_
 x16_9_ x16_n_ x17_0_ x17_1_ x17_2_ x17_3_ x17_4_ x17_5_ x17_6_ x17_7_
 x17_8_ x17_9_ x17_n_ x18_6_ x18_7_ x18_8_ x18_9_ x18_n_ x19_6_ x19_7_
 x19_8_ x19_9_ x19_n_ x20_6_ x20_7_ x20_8_ x20_9_ x20_n_ x21_6_ x21_7_
 x21_8_ x21_9_ x21_n_ x22_0_ x22_1_ x22_2_ x22_3_ x22_4_ x22_5_ x22_6_
 x22_7_ x22_8_ x22_9_ x22_n_ x23_6_ x23_7_ x23_8_ x23_9_ x23_n_ x24_0_
 x24_1_ x24_2_ x24_3_ x24_4_ x24_5_ x24_6_ x24_7_ x24_8_ x24_9_ x24_n_
End
